param n := 60;
param c := 10000
param : V : p w :=
   0	  88	 379
   1	  11	 293
   2	  57	 328
   3	  97	 470
   4	  81	 251
   5	  77	 279
   6	  48	 411
   7	  39	 253
   8	  75	 336
   9	  28	 414
  10	  55	 276
  11	   5	 310
  12	  10	 418
  13	  42	 286
  14	   4	 296
  15	  61	 378
  16	  49	 296
  17	  20	 326
  18	  28	 428
  19	  99	 281
  20	  44	 291
  21	   2	 455
  22	  53	 264
  23	  64	 281
  24	  82	 494
  25	  51	 252
  26	  37	 254
  27	  44	 478
  28	  11	 258
  29	  94	 264
  30	  14	 409
  31	  19	 287
  32	  92	 304
  33	  42	 425
  34	  77	 256
  35	  28	 319
  36	  96	 402
  37	  49	 252
  38	  23	 346
  39	  25	 403
  40	   1	 283
  41	  42	 314
  42	  11	 401
  43	  26	 284
  44	  95	 315
  45	  90	 434
  46	  59	 282
  47	   3	 284
  48	   3	 496
  49	  23	 251
  50	  27	 253
  51	  95	 491
  52	   7	 253
  53	  75	 256
  54	 100	 498
  55	  61	 250
  56	  58	 252
  57	  23	 379
  58	  97	 264
  59	  31	 357
;

set E :=
   0	   2
   0	   6
   0	   8
   0	  15
   0	  20
   0	  25
   0	  35
   0	  40
   0	  43
   0	  44
   1	  14
   1	  16
   1	  17
   1	  20
   1	  23
   1	  27
   1	  32
   1	  38
   1	  42
   1	  46
   1	  52
   1	  57
   2	   3
   2	  10
   2	  11
   2	  20
   2	  21
   2	  23
   2	  24
   2	  27
   2	  29
   2	  43
   2	  44
   2	  50
   2	  51
   2	  55
   2	  56
   2	  59
   3	   6
   3	   8
   3	   9
   3	  14
   3	  19
   3	  21
   3	  25
   3	  30
   3	  44
   3	  47
   3	  51
   4	   9
   4	  10
   4	  11
   4	  14
   4	  16
   4	  17
   4	  20
   4	  21
   4	  22
   4	  28
   4	  38
   4	  54
   4	  57
   4	  59
   5	   6
   5	   9
   5	  12
   5	  22
   5	  24
   5	  28
   5	  37
   5	  38
   5	  51
   5	  52
   5	  56
   5	  57
   5	  58
   6	  12
   6	  13
   6	  14
   6	  17
   6	  19
   6	  24
   6	  31
   6	  32
   6	  35
   6	  39
   6	  41
   6	  45
   6	  49
   6	  57
   6	  58
   7	   8
   7	  12
   7	  15
   7	  17
   7	  24
   7	  33
   7	  34
   7	  38
   7	  40
   7	  44
   7	  52
   8	   9
   8	  10
   8	  12
   8	  28
   8	  29
   8	  31
   8	  32
   8	  35
   8	  38
   8	  43
   8	  45
   8	  51
   8	  53
   9	  13
   9	  33
   9	  41
   9	  42
   9	  47
   9	  51
   9	  54
   9	  56
   9	  57
  10	  14
  10	  28
  10	  34
  10	  44
  10	  47
  10	  51
  10	  55
  10	  57
  11	  19
  11	  26
  11	  32
  11	  36
  11	  46
  11	  53
  11	  56
  12	  13
  12	  14
  12	  17
  12	  18
  12	  36
  12	  40
  12	  48
  12	  50
  12	  52
  13	  18
  13	  22
  13	  24
  13	  33
  13	  35
  13	  49
  13	  51
  13	  54
  14	  15
  14	  20
  14	  31
  14	  41
  14	  56
  14	  59
  15	  16
  15	  19
  15	  30
  15	  31
  15	  39
  15	  45
  15	  50
  15	  54
  15	  56
  16	  22
  16	  30
  16	  31
  16	  35
  16	  36
  16	  40
  16	  51
  16	  56
  16	  59
  17	  18
  17	  27
  17	  30
  17	  42
  17	  50
  17	  52
  17	  54
  17	  55
  17	  56
  17	  57
  17	  59
  18	  23
  18	  28
  18	  33
  18	  36
  18	  54
  18	  58
  19	  21
  19	  23
  19	  26
  19	  29
  19	  31
  19	  34
  19	  39
  19	  42
  19	  45
  19	  52
  19	  55
  19	  56
  20	  35
  20	  36
  20	  38
  20	  50
  21	  28
  21	  29
  21	  36
  21	  44
  21	  45
  21	  46
  21	  54
  21	  58
  22	  25
  22	  27
  22	  33
  22	  35
  22	  41
  22	  47
  22	  59
  23	  29
  23	  37
  23	  39
  23	  40
  23	  49
  23	  50
  23	  52
  24	  29
  24	  31
  24	  34
  24	  39
  24	  40
  24	  43
  24	  48
  24	  50
  24	  53
  24	  59
  25	  28
  25	  39
  25	  51
  25	  52
  26	  29
  26	  34
  26	  35
  26	  53
  26	  59
  27	  32
  27	  33
  27	  41
  27	  47
  27	  48
  27	  49
  27	  54
  28	  31
  28	  36
  28	  54
  28	  58
  29	  39
  29	  41
  29	  44
  29	  45
  29	  49
  29	  50
  29	  55
  30	  31
  30	  35
  30	  36
  30	  57
  31	  33
  31	  40
  31	  46
  31	  51
  31	  52
  31	  54
  32	  34
  32	  38
  32	  43
  32	  47
  32	  49
  32	  56
  32	  59
  33	  41
  33	  48
  33	  52
  33	  59
  34	  37
  34	  40
  34	  46
  34	  47
  34	  49
  35	  41
  35	  43
  35	  56
  35	  59
  36	  40
  36	  41
  37	  39
  37	  41
  37	  46
  37	  53
  37	  59
  38	  43
  38	  44
  38	  46
  38	  53
  39	  47
  39	  54
  39	  58
  40	  44
  40	  47
  40	  50
  40	  52
  40	  57
  41	  42
  41	  43
  41	  45
  41	  46
  41	  49
  41	  51
  42	  49
  42	  50
  42	  54
  42	  55
  43	  50
  44	  50
  44	  55
  44	  58
  45	  52
  45	  54
  45	  55
  45	  56
  46	  55
  47	  48
  47	  50
  47	  51
  47	  54
  48	  56
  48	  57
  48	  58
  49	  51
  49	  53
  49	  57
  50	  58
  51	  52
  51	  53
  51	  55
  51	  56
  52	  53
  52	  56
  53	  54
  53	  58
  55	  59
;
